nat_inputs/AUFLIA/20170829-Rodin/smt7464873646636974844.smt2
(set-info :smt-lib-version 2.6)
(set-logic ALL)
(declare-sort Nat$ 0)
(declare-fun to_int$ (Nat$) Int)
(set-info :source |Generator: Rodin SMT Plug-in|)
(set-info :license "https://creativecommons.org/licenses/by-nc/4.0/")
(set-info :category "industrial")
(set-info :status unsat)
(declare-sort A 0)
(declare-sort PA 0)
(declare-sort PAA 0)
(declare-sort PZA 0)
(declare-fun MS (A PA) Bool)
(declare-fun MS0 (A A PAA) Bool)
(declare-fun MS1 (Int A PZA) Bool)
(declare-fun cnc (PZA PZA PZA) Bool)
(declare-fun dist (A A Int) Bool)
(declare-fun length (PZA Int) Bool)
(declare-fun path (A A PZA) Bool)
(declare-fun reverse (PZA PZA) Bool)
(declare-fun seq (PZA) Bool)
(declare-fun shpath (A A PZA) Bool)
(declare-fun a () PA)
(declare-fun c () PAA)
(declare-fun candidate () PA)
(declare-fun r () PAA)
(declare-fun t () A)
(declare-fun x () A)
(declare-fun z () A)
(assert (forall ((x429 A) (x430 A)) (exists ((X PAA)) (and (MS0 x429 x430 X) (forall ((y33 A) (y34 A)) (=> (MS0 y33 y34 X) (and (= y33 x429) (= y34 x430))))))))
(assert (forall ((x431 A)) (exists ((X0 PA)) (and (MS x431 X0) (forall ((y35 A)) (=> (MS y35 X0) (= y35 x431)))))))
(assert (forall ((x432 Int) (x433 A)) (exists ((X1 PZA)) (and (MS1 x432 x433 X1) (forall ((y36 Int) (y37 A)) (=> (MS1 y36 y37 X1) (and (= y36 x432) (= y37 x433))))))))
(assert (! (forall ((x0 A) (y1 A) (y2 A) (z0 A) (q PZA)) (=> (and (MS x0 a) (MS y1 a) (MS z0 a) (not (= z0 x0)) (not (= z0 y1)) (forall ((t0 A)) (=> (and (MS t0 a) (MS0 z0 t0 r)) (forall ((x1 Int) (x2 Int)) (=> (and (dist x0 t0 x2) (dist x0 z0 x1)) (<= x2 x1))))) (path x0 y1 q) (not (exists ((x3 Int)) (MS1 x3 z0 q))) (MS y2 a) (not (= y2 y1)) (not (= z0 y2)) (exists ((x4 Int)) (MS1 x4 y2 q))) (exists ((p PZA)) (and (path y1 y2 p) (not (exists ((x5 Int)) (MS1 x5 z0 p))))))) :named hyp1))
(assert (! (forall ((x6 A) (y10 A) (y20 A) (z1 A) (q0 PZA)) (=> (and (MS x6 a) (MS y10 a) (MS z1 a) (not (= z1 x6)) (not (= z1 y10)) (forall ((t1 A)) (=> (and (MS t1 a) (MS0 z1 t1 r)) (forall ((x7 Int) (x8 Int)) (=> (and (dist x6 t1 x8) (dist x6 z1 x7)) (<= x8 x7))))) (path x6 y10 q0) (not (exists ((x9 Int)) (MS1 x9 z1 q0))) (MS y20 a) (not (= y20 y10)) (not (= z1 y20)) (not (exists ((x10 Int)) (MS1 x10 y20 q0))) (MS0 y20 x6 r)) (exists ((p0 PZA)) (and (path y10 y20 p0) (not (exists ((x11 Int)) (MS1 x11 z1 p0))))))) :named hyp2))
(assert (! (forall ((x12 A) (y11 A) (y21 A) (z2 A) (q1 PZA) (p1 PZA)) (=> (and (MS x12 a) (MS y11 a) (MS z2 a) (not (= z2 x12)) (not (= z2 y11)) (forall ((t2 A)) (=> (and (MS t2 a) (MS0 z2 t2 r)) (forall ((x13 Int) (x14 Int)) (=> (and (dist x12 t2 x14) (dist x12 z2 x13)) (<= x14 x13))))) (path x12 y11 q1) (not (exists ((x15 Int)) (MS1 x15 z2 q1))) (path x12 y21 p1) (not (exists ((x16 Int)) (MS1 x16 z2 p1))) (MS y21 a) (not (= y21 y11)) (not (= z2 y21)) (not (exists ((x17 Int)) (MS1 x17 y21 q1))) (not (MS0 y21 x12 r))) (exists ((s PZA)) (and (path y11 y21 s) (not (exists ((x18 Int)) (MS1 x18 z2 s))))))) :named hyp3))
(assert (! (forall ((x19 A) (y12 A) (y22 A) (z3 A) (q2 PZA)) (=> (and (MS x19 a) (MS y12 a) (MS z3 a) (not (= z3 x19)) (not (= z3 y12)) (forall ((t3 A)) (=> (and (MS t3 a) (MS0 z3 t3 r)) (forall ((x20 Int) (x21 Int)) (=> (and (dist x19 t3 x21) (dist x19 z3 x20)) (<= x21 x20))))) (path x19 y12 q2) (not (exists ((x22 Int)) (MS1 x22 z3 q2))) (MS y22 a) (not (= y22 y12)) (not (= z3 y22)) (not (exists ((x23 Int)) (MS1 x23 y22 q2))) (not (MS0 y22 x19 r))) (exists ((s0 PZA)) (and (path y12 y22 s0) (not (exists ((x24 Int)) (MS1 x24 z3 s0))))))) :named hyp4))
(assert (! (forall ((x25 A) (y13 A) (y23 A) (z4 A) (q3 PZA)) (=> (and (MS x25 a) (MS y13 a) (MS z4 a) (not (= z4 x25)) (not (= z4 y13)) (forall ((t4 A)) (=> (and (MS t4 a) (MS0 z4 t4 r)) (forall ((x26 Int) (x27 Int)) (=> (and (dist x25 t4 x27) (dist x25 z4 x26)) (<= x27 x26))))) (path x25 y13 q3) (not (exists ((x28 Int)) (MS1 x28 z4 q3))) (MS y23 a) (not (= y23 y13)) (not (= z4 y23))) (exists ((p2 PZA)) (and (path y13 y23 p2) (not (exists ((x29 Int)) (MS1 x29 z4 p2))))))) :named hyp5))
(assert (! (forall ((x30 A) (z5 A)) (=> (and (MS x30 a) (MS z5 a) (not (= z5 x30)) (forall ((t5 A)) (=> (and (MS t5 a) (MS0 z5 t5 r)) (forall ((x31 Int) (x32 Int)) (=> (and (dist x30 t5 x32) (dist x30 z5 x31)) (<= x32 x31)))))) (forall ((y14 A) (y24 A)) (=> (and (MS y14 a) (MS y24 a) (not (= y24 y14)) (not (= z5 y24)) (not (= z5 y14))) (exists ((p3 PZA)) (and (path y14 y24 p3) (not (exists ((x33 Int)) (MS1 x33 z5 p3))))))))) :named hyp6))
(assert (! (MS x a) :named hyp7))
(assert (! (MS z a) :named hyp8))
(assert (! (not (= z x)) :named hyp9))
(assert (! (MS t a) :named hyp10))
(assert (! (MS0 z t r) :named hyp11))
(assert (! (forall ((x34 A) (x35 A)) (=> (MS0 x34 x35 r) (and (MS x34 a) (MS x35 a)))) :named hyp12))
(assert (! (not (forall ((x36 A) (x37 A)) (not (MS0 x36 x37 r)))) :named hyp13))
(assert (! (forall ((x38 A) (x39 A)) (=> (MS0 x38 x39 c) (and (MS x38 a) (MS x39 a)))) :named hyp14))
(assert (! (forall ((x40 A) (x41 A)) (=> (MS0 x40 x41 r) (MS0 x40 x41 c))) :named hyp15))
(assert (! (forall ((x42 A) (x43 A)) (=> (exists ((x44 A)) (and (MS0 x42 x44 c) (MS0 x44 x43 r))) (MS0 x42 x43 c))) :named hyp16))
(assert (! (forall ((s1 PAA)) (=> (and (forall ((x45 A) (x46 A)) (=> (MS0 x45 x46 s1) (and (MS x45 a) (MS x46 a)))) (forall ((x47 A) (x48 A)) (=> (MS0 x47 x48 r) (MS0 x47 x48 s1))) (forall ((x49 A) (x50 A)) (=> (exists ((x51 A)) (and (MS0 x49 x51 s1) (MS0 x51 x50 r))) (MS0 x49 x50 s1)))) (forall ((x52 A) (x53 A)) (=> (MS0 x52 x53 c) (MS0 x52 x53 s1))))) :named hyp17))
(assert (! (forall ((x54 A)) (= (exists ((x55 A)) (MS0 x54 x55 r)) (MS x54 a))) :named hyp18))
(assert (! (forall ((x56 A)) (= (exists ((x57 A)) (MS0 x56 x57 c)) (MS x56 a))) :named hyp19))
(assert (! (forall ((x58 A)) (=> (exists ((x59 A)) (MS0 x58 x59 r)) (exists ((x60 A)) (MS0 x58 x60 c)))) :named hyp20))
(assert (! (forall ((x61 A) (x62 A)) (= (MS0 x61 x62 c) (or (MS0 x61 x62 r) (exists ((x63 A)) (and (MS0 x61 x63 c) (MS0 x63 x62 r)))))) :named hyp21))
(assert (! (forall ((x64 A) (y A)) (=> (and (MS x64 a) (MS y a)) (forall ((s2 PZA) (n Nat$)) (=> (and (<= 0 (to_int$ n)) (< 1 (to_int$ n)) (forall ((x65 Int) (x66 A)) (=> (MS1 x65 x66 s2) (and (<= 1 x65) (<= x65 (to_int$ n)) (MS x66 a)))) (forall ((x67 Int) (x68 A) (x69 A)) (=> (and (MS1 x67 x68 s2) (MS1 x67 x69 s2)) (= x68 x69))) (forall ((x70 Int)) (=> (and (<= 1 x70) (<= x70 (to_int$ n))) (exists ((x71 A)) (MS1 x70 x71 s2))))) (and (exists ((x72 A) (x73 Int)) (and (= x73 1) (MS1 x73 x72 s2))) (forall ((x74 Int) (x75 A) (x76 A)) (=> (and (MS1 x74 x75 s2) (MS1 x74 x76 s2)) (= x75 x76))) (=> (exists ((x77 Int)) (and (= x77 1) (MS1 x77 x64 s2))) (and (exists ((x78 A)) (MS1 (to_int$ n) x78 s2)) (=> (MS1 (to_int$ n) y s2) (forall ((i Int)) (=> (and (<= 1 i) (<= i (- (to_int$ n) 1))) (and (exists ((x79 A)) (MS1 i x79 s2)) (exists ((x80 A) (x81 Int)) (and (= x81 (+ i 1)) (MS1 x81 x80 s2)))))))))))))) :named hyp22))
(assert (! (forall ((x82 A) (x83 A)) (=> (exists ((x84 PZA)) (path x82 x83 x84)) (MS0 x82 x83 c))) :named hyp23))
(assert (! (forall ((x85 A) (x86 A)) (=> (MS0 x85 x86 c) (exists ((x87 PZA)) (path x85 x86 x87)))) :named hyp24))
(assert (! (forall ((x88 A) (x89 A)) (=> (and (MS x88 a) (MS x89 a)) (exists ((x90 PZA)) (path x88 x89 x90)))) :named hyp25))
(assert (! (forall ((x91 PZA)) (= (seq x91) (exists ((s3 PZA)) (and (exists ((n0 Nat$)) (and (<= 0 (to_int$ n0)) (forall ((x92 Int) (x93 A)) (=> (MS1 x92 x93 s3) (and (<= 1 x92) (<= x92 (to_int$ n0))))) (forall ((x94 Int) (x95 A) (x96 A)) (=> (and (MS1 x94 x95 s3) (MS1 x94 x96 s3)) (= x95 x96))) (forall ((x97 Int)) (=> (and (<= 1 x97) (<= x97 (to_int$ n0))) (exists ((x98 A)) (MS1 x97 x98 s3)))))) (forall ((x99 Int) (x100 A)) (= (MS1 x99 x100 x91) (MS1 x99 x100 s3))))))) :named hyp26))
(assert (! (forall ((n1 Nat$) (s4 PZA)) (=> (and (<= 0 (to_int$ n1)) (forall ((x101 Int) (x102 A)) (=> (MS1 x101 x102 s4) (and (<= 1 x101) (<= x101 (to_int$ n1))))) (forall ((x103 Int) (x104 A) (x105 A)) (=> (and (MS1 x103 x104 s4) (MS1 x103 x105 s4)) (= x104 x105))) (forall ((x106 Int)) (=> (and (<= 1 x106) (<= x106 (to_int$ n1))) (exists ((x107 A)) (MS1 x106 x107 s4))))) (seq s4))) :named hyp27))
(assert (! (and (forall ((x108 PZA) (x109 Nat$)) (=> (length x108 (to_int$ x109)) (and (seq x108) (<= 0 (to_int$ x109))))) (forall ((x110 PZA) (x111 Int) (x112 Int)) (=> (and (length x110 x111) (length x110 x112)) (= x111 x112))) (forall ((x113 PZA)) (=> (seq x113) (exists ((x114 Int)) (length x113 x114))))) :named hyp28))
(assert (! (forall ((n2 Nat$) (s5 PZA)) (=> (and (<= 0 (to_int$ n2)) (forall ((x115 Int) (x116 A)) (=> (MS1 x115 x116 s5) (and (<= 1 x115) (<= x115 (to_int$ n2))))) (forall ((x117 Int) (x118 A) (x119 A)) (=> (and (MS1 x117 x118 s5) (MS1 x117 x119 s5)) (= x118 x119))) (forall ((x120 Int)) (=> (and (<= 1 x120) (<= x120 (to_int$ n2))) (exists ((x121 A)) (MS1 x120 x121 s5))))) (length s5 (to_int$ n2)))) :named hyp29))
(assert (! (forall ((s6 PZA)) (=> (seq s6) (and (forall ((x122 Int) (x123 A)) (=> (MS1 x122 x123 s6) (and (<= 1 x122) (forall ((x124 Int)) (=> (length s6 x124) (<= x122 x124)))))) (forall ((x125 Int) (x126 A) (x127 A)) (=> (and (MS1 x125 x126 s6) (MS1 x125 x127 s6)) (= x126 x127))) (forall ((x128 Int)) (=> (and (<= 1 x128) (forall ((x129 Int)) (=> (length s6 x129) (<= x128 x129)))) (exists ((x130 A)) (MS1 x128 x130 s6))))))) :named hyp30))
(assert (! (forall ((x131 PZA) (x132 PZA) (x133 PZA)) (= (cnc x131 x132 x133) (exists ((s10 PZA) (s20 PZA)) (and (seq s10) (seq s20) (forall ((x134 Int) (x135 A)) (= (MS1 x134 x135 x131) (MS1 x134 x135 s10))) (forall ((x136 Int) (x137 A)) (= (MS1 x136 x137 x132) (MS1 x136 x137 s20))) (forall ((x138 Int) (x139 A)) (= (MS1 x138 x139 x133) (or (exists ((i0 Int)) (and (<= 1 i0) (forall ((x140 Int)) (=> (length s10 x140) (<= i0 x140))) (= x138 i0) (MS1 i0 x139 s10))) (exists ((i1 Int)) (and (forall ((x141 Int)) (=> (length s10 x141) (<= (+ x141 1) i1))) (forall ((x142 Int) (x143 Int)) (=> (and (length s10 x143) (length s20 x142)) (<= i1 (+ x143 x142)))) (= x138 i1) (exists ((x144 Int)) (and (forall ((x145 Int)) (=> (length s10 x145) (= x144 (- i1 x145)))) (MS1 x144 x139 s20)))))))))))) :named hyp31))
(assert (! (and (forall ((x146 PZA) (x147 PZA) (x148 PZA)) (=> (cnc x146 x147 x148) (and (seq x146) (seq x147) (seq x148)))) (forall ((x149 PZA) (x150 PZA) (x151 PZA) (x152 PZA)) (=> (and (cnc x149 x150 x151) (cnc x149 x150 x152)) (forall ((x153 Int) (x154 A)) (= (MS1 x153 x154 x151) (MS1 x153 x154 x152))))) (forall ((x155 PZA) (x156 PZA)) (=> (and (seq x155) (seq x156)) (exists ((x157 PZA)) (cnc x155 x156 x157))))) :named hyp32))
(assert (! (forall ((s11 PZA) (s21 PZA)) (=> (and (seq s11) (seq s21)) (exists ((x158 PZA) (x159 Int)) (and (cnc s11 s21 x158) (forall ((x160 Int) (x161 Int)) (=> (and (length s11 x161) (length s21 x160)) (= x159 (+ x161 x160)))) (length x158 x159))))) :named hyp33))
(assert (! (forall ((s12 PZA) (s22 PZA)) (=> (and (seq s12) (seq s22)) (forall ((x162 Int)) (= (exists ((x163 A) (x164 PZA)) (and (cnc s12 s22 x164) (MS1 x162 x163 x164))) (and (<= 1 x162) (forall ((x165 Int) (x166 Int)) (=> (and (length s12 x166) (length s22 x165)) (<= x162 (+ x166 x165))))))))) :named hyp34))
(assert (! (forall ((s13 PZA) (s23 PZA)) (=> (and (seq s13) (seq s23)) (forall ((x167 A)) (= (exists ((x168 Int) (x169 PZA)) (and (cnc s13 s23 x169) (MS1 x168 x167 x169))) (or (exists ((x170 Int)) (MS1 x170 x167 s13)) (exists ((x171 Int)) (MS1 x171 x167 s23))))))) :named hyp35))
(assert (! (forall ((s14 PZA) (s24 PZA) (i2 Int)) (=> (and (seq s14) (seq s24) (<= 1 i2) (forall ((x172 Int)) (=> (length s14 x172) (<= i2 x172)))) (exists ((x173 PZA)) (and (cnc s14 s24 x173) (exists ((x174 A)) (and (MS1 i2 x174 s14) (MS1 i2 x174 x173))))))) :named hyp36))
(assert (! (forall ((s15 PZA) (s25 PZA) (i3 Int)) (=> (and (seq s15) (seq s25) (forall ((x175 Int)) (=> (length s15 x175) (<= (+ x175 1) i3))) (forall ((x176 Int) (x177 Int)) (=> (and (length s15 x177) (length s25 x176)) (<= i3 (+ x177 x176))))) (exists ((x178 PZA)) (and (cnc s15 s25 x178) (exists ((x179 A)) (and (exists ((x180 Int)) (and (forall ((x181 Int)) (=> (length s15 x181) (= x180 (- i3 x181)))) (MS1 x180 x179 s25))) (MS1 i3 x179 x178))))))) :named hyp37))
(assert (! (forall ((x182 A) (x183 A)) (not (and (MS0 x182 x183 r) (= x182 x183)))) :named hyp38))
(assert (! (and (forall ((x184 A) (x185 A) (x186 Nat$)) (=> (dist x184 x185 (to_int$ x186)) (and (MS x184 a) (MS x185 a) (<= 0 (to_int$ x186))))) (forall ((x187 A) (x188 A) (x189 Int) (x190 Int)) (=> (and (dist x187 x188 x189) (dist x187 x188 x190)) (= x189 x190))) (forall ((x191 A) (x192 A)) (=> (and (MS x191 a) (MS x192 a)) (exists ((x193 Int)) (dist x191 x192 x193))))) :named hyp39))
(assert (! (forall ((x194 A) (y0 A)) (=> (and (MS x194 a) (MS y0 a)) (exists ((x195 Int)) (and (exists ((x196 PZA)) (and (exists ((x197 A) (x198 A)) (and (= x197 x194) (= x198 y0) (path x197 x198 x196))) (length x196 x195))) (forall ((x199 Int)) (=> (exists ((x200 PZA)) (and (exists ((x201 A) (x202 A)) (and (= x201 x194) (= x202 y0) (path x201 x202 x200))) (length x200 x199))) (<= x195 x199))) (dist x194 y0 x195))))) :named hyp40))
(assert (! (forall ((x203 PZA) (x204 PZA)) (= (reverse x203 x204) (exists ((s7 PZA)) (and (seq s7) (forall ((x205 Int) (x206 A)) (= (MS1 x205 x206 x203) (MS1 x205 x206 s7))) (forall ((x207 Int) (x208 A)) (= (MS1 x207 x208 x204) (exists ((i4 Int)) (and (<= 1 i4) (forall ((x209 Int)) (=> (length s7 x209) (<= i4 x209))) (= x207 i4) (exists ((x210 Int)) (and (forall ((x211 Int)) (=> (length s7 x211) (= x210 (+ (- x211 i4) 1)))) (MS1 x210 x208 s7))))))))))) :named hyp41))
(assert (! (and (forall ((x212 PZA) (x213 PZA)) (=> (reverse x212 x213) (and (seq x212) (seq x213)))) (forall ((x214 PZA) (x215 PZA) (x216 PZA)) (=> (and (reverse x214 x215) (reverse x214 x216)) (forall ((x217 Int) (x218 A)) (= (MS1 x217 x218 x215) (MS1 x217 x218 x216))))) (forall ((x219 PZA)) (=> (seq x219) (exists ((x220 PZA)) (reverse x219 x220))))) :named hyp42))
(assert (! (forall ((s8 PZA)) (=> (seq s8) (exists ((x221 PZA) (x222 Int)) (and (reverse s8 x221) (length s8 x222) (length x221 x222))))) :named hyp43))
(assert (! (forall ((s9 PZA)) (=> (seq s9) (forall ((x223 A)) (= (exists ((x224 Int) (x225 PZA)) (and (reverse s9 x225) (MS1 x224 x223 x225))) (exists ((x226 Int)) (MS1 x226 x223 s9)))))) :named hyp44))
(assert (! (forall ((s16 PZA)) (=> (seq s16) (exists ((x227 PZA)) (and (reverse s16 x227) (reverse x227 s16))))) :named hyp45))
(assert (! (forall ((x228 A) (x229 A)) (=> (MS0 x228 x229 r) (MS0 x229 x228 r))) :named hyp46))
(assert (! (forall ((x230 A) (y3 A) (p4 PZA)) (=> (path x230 y3 p4) (exists ((x231 PZA)) (and (reverse p4 x231) (path y3 x230 x231))))) :named hyp47))
(assert (! (forall ((x232 A) (y4 A)) (=> (and (MS x232 a) (MS y4 a)) (forall ((x233 PZA)) (= (exists ((x234 A) (x235 A)) (and (= x234 y4) (= x235 x232) (path x234 x235 x233))) (exists ((x236 PZA)) (and (exists ((x237 A) (x238 A)) (and (= x237 x232) (= x238 y4) (path x237 x238 x236))) (reverse x236 x233))))))) :named hyp48))
(assert (! (forall ((x239 A) (y5 A)) (=> (and (MS x239 a) (MS y5 a)) (exists ((x240 Int)) (and (dist y5 x239 x240) (dist x239 y5 x240))))) :named hyp49))
(assert (! (forall ((x241 A) (x242 A) (x243 PZA)) (= (shpath x241 x242 x243) (exists ((x244 A) (y6 A) (p5 PZA)) (and (path x244 y6 p5) (exists ((x245 Int)) (and (length p5 x245) (dist x244 y6 x245))) (= x241 x244) (= x242 y6) (forall ((x246 Int) (x247 A)) (= (MS1 x246 x247 x243) (MS1 x246 x247 p5))))))) :named hyp50))
(assert (! (forall ((x248 A) (y7 A) (p6 PZA)) (=> (path x248 y7 p6) (and (exists ((x249 Int)) (dist x248 y7 x249)) (forall ((x250 A) (x251 A) (x252 Int) (x253 Int)) (=> (and (dist x250 x251 x252) (dist x250 x251 x253)) (= x252 x253))) (exists ((x254 Int)) (length p6 x254)) (forall ((x255 PZA) (x256 Int) (x257 Int)) (=> (and (length x255 x256) (length x255 x257)) (= x256 x257)))))) :named hyp51))
(assert (! (forall ((x258 A) (y8 A)) (=> (and (MS x258 a) (MS y8 a)) (exists ((x259 PZA)) (shpath x258 y8 x259)))) :named hyp52))
(assert (! (forall ((y15 A) (y25 A) (x260 A) (x1100 A) (p7 PZA) (q4 PZA)) (=> (and (MS y15 a) (MS y25 a) (MS x260 a) (MS x1100 a) (path x260 y15 q4) (path y25 x1100 p7) (MS0 x1100 x260 r)) (exists ((x261 PZA)) (and (cnc p7 q4 x261) (path y25 y15 x261))))) :named hyp53))
(assert (! (forall ((x262 A) (y9 A) (p8 PZA) (i5 Int)) (=> (and (MS x262 a) (MS y9 a) (path x262 y9 p8) (<= 2 i5) (forall ((x263 Int)) (=> (length p8 x263) (<= i5 (- x263 1))))) (exists ((x264 A) (x265 PZA)) (and (MS1 i5 x264 p8) (forall ((x266 Int) (x267 A)) (= (MS1 x266 x267 x265) (and (MS1 x266 x267 p8) (<= 1 x266) (<= x266 i5)))) (path x262 x264 x265))))) :named hyp54))
(assert (! (forall ((x268 A) (y26 A) (p9 PZA)) (=> (and (MS x268 a) (MS y26 a) (path x268 y26 p9) (forall ((x269 Int)) (=> (length p9 x269) (<= 3 x269)))) (exists ((x270 A) (x271 PZA)) (and (exists ((x272 PZA)) (and (reverse p9 x272) (exists ((x273 Int)) (and (forall ((x274 Int)) (=> (length p9 x274) (= x273 (- x274 1)))) (MS1 x273 x270 x272))))) (forall ((x275 Int) (x276 A)) (= (MS1 x275 x276 x271) (and (exists ((x277 PZA)) (and (reverse p9 x277) (MS1 x275 x276 x277))) (<= 1 x275) (forall ((x278 Int)) (=> (length p9 x278) (<= x275 (- x278 1))))))) (path y26 x270 x271))))) :named hyp55))
(assert (! (forall ((x279 A) (y16 A) (p10 PZA)) (=> (shpath x279 y16 p10) (exists ((x280 PZA)) (and (reverse p10 x280) (shpath y16 x279 x280))))) :named hyp56))
(assert (! (forall ((x281 A) (x282 A) (x283 PZA)) (= (path x281 x282 x283) (exists ((x284 A) (y17 A) (p11 PZA)) (and (MS x284 a) (MS y17 a) (exists ((n3 Nat$)) (and (<= 0 (to_int$ n3)) (< 1 (to_int$ n3)) (forall ((x285 Int) (x286 A)) (=> (MS1 x285 x286 p11) (and (<= 1 x285) (<= x285 (to_int$ n3)) (MS x286 a)))) (forall ((x287 Int) (x288 A) (x289 A)) (=> (and (MS1 x287 x288 p11) (MS1 x287 x289 p11)) (= x288 x289))) (forall ((x290 Int)) (=> (and (<= 1 x290) (<= x290 (to_int$ n3))) (exists ((x291 A)) (MS1 x290 x291 p11)))) (exists ((x292 Int)) (and (= x292 1) (MS1 x292 x284 p11))) (MS1 (to_int$ n3) y17 p11) (forall ((i6 Int)) (=> (and (<= 1 i6) (<= i6 (- (to_int$ n3) 1))) (exists ((x293 A) (x294 A)) (and (MS1 i6 x293 p11) (exists ((x295 Int)) (and (= x295 (+ i6 1)) (MS1 x295 x294 p11))) (MS0 x293 x294 r))))))) (= x281 x284) (= x282 y17) (forall ((x296 Int) (x297 A)) (= (MS1 x296 x297 x283) (MS1 x296 x297 p11))))))) :named hyp57))
(assert (! (forall ((x298 A)) (= (MS x298 candidate) (exists ((z6 A)) (and (MS z6 a) (forall ((x299 A) (y18 A)) (=> (and (MS x299 a) (not (= x299 z6)) (MS y18 a) (not (= y18 z6)) (not (= x299 y18))) (exists ((p12 PZA)) (and (exists ((x300 A) (x301 A)) (and (= x300 x299) (= x301 y18) (path x300 x301 p12))) (not (exists ((x302 Int)) (MS1 x302 z6 p12))))))) (= x298 z6))))) :named hyp58))
(assert (! (forall ((u A)) (=> (MS u candidate) (forall ((x303 A) (x304 A)) (=> (and (MS x303 a) (not (= x303 u)) (MS x304 a) (not (= x304 u)) (not (= x303 x304))) (exists ((x305 A) (y19 A) (p13 PZA)) (and (MS x305 a) (not (= x305 u)) (MS y19 a) (not (= y19 u)) (not (= x305 y19)) (exists ((n4 Nat$)) (and (<= 0 (to_int$ n4)) (< 1 (to_int$ n4)) (forall ((x306 Int) (x307 A)) (=> (MS1 x306 x307 p13) (and (<= 1 x306) (<= x306 (to_int$ n4)) (MS x307 a) (not (= x307 u))))) (forall ((x308 Int) (x309 A) (x310 A)) (=> (and (MS1 x308 x309 p13) (MS1 x308 x310 p13)) (= x309 x310))) (forall ((x311 Int)) (=> (and (<= 1 x311) (<= x311 (to_int$ n4))) (exists ((x312 A)) (MS1 x311 x312 p13)))) (exists ((x313 Int)) (and (= x313 1) (MS1 x313 x305 p13))) (MS1 (to_int$ n4) y19 p13) (forall ((i7 Int)) (=> (and (<= 1 i7) (<= i7 (- (to_int$ n4) 1))) (exists ((x314 A) (x315 A)) (and (MS1 i7 x314 p13) (exists ((x316 Int)) (and (= x316 (+ i7 1)) (MS1 x316 x315 p13))) (MS0 x314 x315 r))))))) (= x303 x305) (= x304 y19))))))) :named hyp59))
(assert (! (forall ((s17 PZA) (s26 PZA)) (=> (and (seq s17) (seq s26)) (and (exists ((x317 Int)) (length s17 x317)) (forall ((x318 PZA) (x319 Int) (x320 Int)) (=> (and (length x318 x319) (length x318 x320)) (= x319 x320))) (forall ((i8 Int)) (=> (and (<= 1 i8) (forall ((x321 Int)) (=> (length s17 x321) (<= i8 x321)))) (and (exists ((x322 A)) (MS1 i8 x322 s17)) (forall ((x323 Int) (x324 A) (x325 A)) (=> (and (MS1 x323 x324 s17) (MS1 x323 x325 s17)) (= x324 x325)))))) (exists ((x326 Int)) (length s26 x326)) (forall ((i9 Int)) (=> (and (forall ((x327 Int)) (=> (length s17 x327) (<= (+ x327 1) i9))) (forall ((x328 Int) (x329 Int)) (=> (and (length s17 x329) (length s26 x328)) (<= i9 (+ x329 x328))))) (and (exists ((x330 A) (x331 Int)) (and (forall ((x332 Int)) (=> (length s17 x332) (= x331 (- i9 x332)))) (MS1 x331 x330 s26))) (forall ((x333 Int) (x334 A) (x335 A)) (=> (and (MS1 x333 x334 s26) (MS1 x333 x335 s26)) (= x334 x335))))))))) :named hyp60))
(assert (! (forall ((s18 PZA)) (=> (seq s18) (and (exists ((x336 Int)) (length s18 x336)) (forall ((x337 PZA) (x338 Int) (x339 Int)) (=> (and (length x337 x338) (length x337 x339)) (= x338 x339))) (forall ((i10 Int)) (=> (and (<= 1 i10) (forall ((x340 Int)) (=> (length s18 x340) (<= i10 x340)))) (and (exists ((x341 A) (x342 Int)) (and (forall ((x343 Int)) (=> (length s18 x343) (= x342 (+ (- x343 i10) 1)))) (MS1 x342 x341 s18))) (forall ((x344 Int) (x345 A) (x346 A)) (=> (and (MS1 x344 x345 s18) (MS1 x344 x346 s18)) (= x345 x346))))))))) :named hyp61))
(assert (! (forall ((x347 A) (y27 A) (p14 PZA) (i11 Int)) (=> (and (MS x347 a) (MS y27 a) (seq p14) (shpath x347 y27 p14) (exists ((x348 A)) (MS1 i11 x348 p14)) (not (= i11 1)) (not (length p14 i11))) (exists ((x349 A) (x350 PZA)) (and (MS1 i11 x349 p14) (forall ((x351 Int) (x352 A)) (= (MS1 x351 x352 x350) (and (MS1 x351 x352 p14) (<= 1 x351) (<= x351 i11)))) (shpath x347 x349 x350))))) :named hyp62))
(assert (! (forall ((x353 A) (y28 A) (p15 PZA) (i12 Int)) (=> (and (MS x353 a) (MS y28 a) (seq p15) (shpath x353 y28 p15) (exists ((x354 A)) (MS1 i12 x354 p15)) (not (= i12 1)) (not (length p15 i12))) (and (exists ((x355 A)) (and (MS1 i12 x355 p15) (dist x353 x355 i12))) (exists ((x356 A) (x357 Int)) (and (exists ((x358 Int)) (and (= x358 (+ i12 1)) (MS1 x358 x356 p15))) (= x357 (+ i12 1)) (dist x353 x356 x357))) (exists ((x359 A) (x360 A)) (and (MS1 i12 x359 p15) (exists ((x361 Int)) (and (= x361 (+ i12 1)) (MS1 x361 x360 p15))) (MS0 x359 x360 r)))))) :named hyp63))
(assert (! (forall ((x362 A) (y29 A) (p16 PZA) (z7 A)) (=> (and (MS x362 a) (MS y29 a) (seq p16) (shpath x362 y29 p16) (exists ((x363 Int)) (MS1 x363 z7 p16)) (not (= z7 x362)) (not (= z7 y29))) (exists ((t6 A)) (and (MS t6 a) (forall ((x364 Int) (x365 Int)) (=> (and (dist x362 z7 x365) (dist x362 t6 x364)) (< x365 x364))) (MS0 z7 t6 r))))) :named hyp64))
(assert (! (forall ((x366 A) (y30 A) (z8 A)) (=> (and (MS x366 a) (MS y30 a) (MS z8 a) (not (= z8 x366)) (not (= z8 y30)) (forall ((t7 A)) (=> (and (MS t7 a) (MS0 z8 t7 r)) (forall ((x367 Int) (x368 Int)) (=> (and (dist x366 t7 x368) (dist x366 z8 x367)) (<= x368 x367)))))) (exists ((q5 PZA)) (and (path x366 y30 q5) (not (exists ((x369 Int)) (MS1 x369 z8 q5))))))) :named hyp65))
(assert (! (forall ((x370 A) (x371 A)) (=> (and (MS x370 a) (MS x371 a)) (MS0 x370 x371 c))) :named hyp66))
(assert (! (not (forall ((x372 A)) (MS x372 a))) :named hyp67))
(assert (! (forall ((s19 PZA) (s27 PZA) (b PA)) (=> (and (seq s19) (seq s27) (forall ((x373 A)) (=> (exists ((x374 Int)) (MS1 x374 x373 s19)) (MS x373 b))) (forall ((x375 A)) (=> (exists ((x376 Int)) (MS1 x376 x375 s27)) (MS x375 b)))) (and (forall ((x377 Int) (x378 A)) (=> (exists ((x379 PZA)) (and (cnc s19 s27 x379) (MS1 x377 x378 x379))) (and (<= 1 x377) (forall ((x380 Int) (x381 Int)) (=> (and (length s19 x381) (length s27 x380)) (<= x377 (+ x381 x380)))) (MS x378 b)))) (forall ((x382 Int) (x383 A) (x384 A)) (=> (and (exists ((x385 PZA)) (and (cnc s19 s27 x385) (MS1 x382 x383 x385))) (exists ((x386 PZA)) (and (cnc s19 s27 x386) (MS1 x382 x384 x386)))) (= x383 x384))) (forall ((x387 Int)) (=> (and (<= 1 x387) (forall ((x388 Int) (x389 Int)) (=> (and (length s19 x389) (length s27 x388)) (<= x387 (+ x389 x388))))) (exists ((x390 A) (x391 PZA)) (and (cnc s19 s27 x391) (MS1 x387 x390 x391)))))))) :named hyp68))
(assert (! (forall ((x392 A) (x393 A) (x394 PZA)) (= (path x392 x393 x394) (exists ((x395 A) (y31 A) (p17 PZA)) (and (seq p17) (forall ((x396 A)) (=> (exists ((x397 Int)) (MS1 x397 x396 p17)) (MS x396 a))) (forall ((x398 Int)) (=> (length p17 x398) (< 1 x398))) (exists ((x399 Int)) (and (= x399 1) (MS1 x399 x395 p17))) (exists ((x400 Int)) (and (length p17 x400) (MS1 x400 y31 p17))) (forall ((i13 Int)) (=> (and (<= 1 i13) (forall ((x401 Int)) (=> (length p17 x401) (<= i13 (- x401 1))))) (exists ((x402 A) (x403 A)) (and (MS1 i13 x402 p17) (exists ((x404 Int)) (and (= x404 (+ i13 1)) (MS1 x404 x403 p17))) (MS0 x402 x403 r))))) (= x392 x395) (= x393 y31) (forall ((x405 Int) (x406 A)) (= (MS1 x405 x406 x394) (MS1 x405 x406 p17))))))) :named hyp69))
(assert (! (forall ((x407 A) (y32 A) (p18 PZA)) (=> (and (seq p18) (forall ((x408 A)) (=> (exists ((x409 Int)) (MS1 x409 x408 p18)) (MS x408 a)))) (and (exists ((x410 Int)) (length p18 x410)) (forall ((x411 PZA) (x412 Int) (x413 Int)) (=> (and (length x411 x412) (length x411 x413)) (= x412 x413))) (=> (forall ((x414 Int)) (=> (length p18 x414) (< 1 x414))) (and (exists ((x415 A) (x416 Int)) (and (= x416 1) (MS1 x416 x415 p18))) (forall ((x417 Int) (x418 A) (x419 A)) (=> (and (MS1 x417 x418 p18) (MS1 x417 x419 p18)) (= x418 x419))) (=> (exists ((x420 Int)) (and (= x420 1) (MS1 x420 x407 p18))) (and (exists ((x421 A) (x422 Int)) (and (length p18 x422) (MS1 x422 x421 p18))) (=> (exists ((x423 Int)) (and (length p18 x423) (MS1 x423 y32 p18))) (forall ((i14 Int)) (=> (and (<= 1 i14) (forall ((x424 Int)) (=> (length p18 x424) (<= i14 (- x424 1))))) (and (exists ((x425 A)) (MS1 i14 x425 p18)) (exists ((x426 A) (x427 Int)) (and (= x427 (+ i14 1)) (MS1 x427 x426 p18)))))))))))))) :named hyp70))
(assert (! (not (exists ((x428 Int)) (dist x z x428))) :named goal))
(check-sat)
(exit)
